25
 0  10   0   0   0  10   0   0   0   0   0   0   0   0   0   0   0   0   0   0   0   0   0   0   0
10   0  10   0   0   0  10   0   0   0   0   0   0   0   0   0   0   0   0   0   0   0   0   0   0
 0  10   0  10   0   0   0  10   0   0   0   0   0   0   0   0   0   0   0   0   0   0   0   0   0
 0   0  10   0  10   0   0   0  10   0   0   0   0   0   0   0   0   0   0   0   0   0   0   0   0
 0   0   0  10   0  10   0   0   0  10   0   0   0   0   0   0   0   0   0   0   0   0   0   0   0
10   0   0   0   0   0  10   0   0   0  10   0   0   0   0   0   0   0   0   0   0   0   0   0   0
 0  10   0   0   0  10   0  10   0   0   0  10   0   0   0   0   0   0   0   0   0   0   0   0   0
 0   0  10   0   0   0  10   0  10   0   0   0  10   0   0   0   0   0   0   0   0   0   0   0   0
 0   0   0  10   0   0   0  10   0  10   0   0   0  10   0   0   0   0   0   0   0   0   0   0   0
 0   0   0   0  10   0   0   0  10   0   0   0   0   0  10   0   0   0   0   0   0   0   0   0   0
 0   0   0   0   0  10   0   0   0   0   0  10   0   0   0  10   0   0   0   0   0   0   0   0   0
 0   0   0   0   0   0  10   0   0   0  10   0  10   0   0   0  10   0   0   0   0   0   0   0   0
 0   0   0   0   0   0   0  10   0   0   0  10   0  10   0   0   0  10   0   0   0   0   0   0   0
 0   0   0   0   0   0   0   0  10   0   0   0  10   0  10   0   0   0  10   0   0   0   0   0   0
 0   0   0   0   0   0   0   0   0  10   0   0   0  10   0   0   0   0   0  10   0   0   0   0   0
 0   0   0   0   0   0   0   0   0   0  10   0   0   0   0   0  10   0   0   0  10   0   0   0   0
 0   0   0   0   0   0   0   0   0   0   0  10   0   0   0  10   0  10   0   0   0  10   0   0   0
 0   0   0   0   0   0   0   0   0   0   0   0  10   0   0   0  10   0  10   0   0   0  10   0   0
 0   0   0   0   0   0   0   0   0   0   0   0   0  10   0   0   0  10   0  10   0   0   0  10   0
 0   0   0   0   0   0   0   0   0   0   0   0   0   0  10   0   0   0  10   0   0   0   0   0  10
 0   0   0   0   0   0   0   0   0   0   0   0   0   0   0  10   0   0   0   0   0  10   0   0   0
 0   0   0   0   0   0   0   0   0   0   0   0   0   0   0   0  10   0   0   0  10   0  10   0   0
 0   0   0   0   0   0   0   0   0   0   0   0   0   0   0   0   0  10   0   0   0  10   0  10   0
 0   0   0   0   0   0   0   0   0   0   0   0   0   0   0   0   0   0  10   0   0   0  10   0  10
 0   0   0   0   0   0   0   0   0   0   0   0   0   0   0   0   0   0   0  10   0   0   0  10   0
12
9
17 24 1 22 3 14 19 7 9